c CNF file corresponding to a (partial) station packing problem.
p cnf 6627 229
1 2 3 4 5 6 7 8 9 10 11 12 13 14 0
-1 -2 0
-1 -3 0
-1 -4 0
-1 -5 0
-1 -6 0
-1 -7 0
-1 -8 0
-1 -9 0
-1 -10 0
-1 -11 0
-1 -12 0
-1 -13 0
-1 -14 0
-2 -3 0
-2 -4 0
-2 -5 0
-2 -6 0
-2 -7 0
-2 -8 0
-2 -9 0
-2 -10 0
-2 -11 0
-2 -12 0
-2 -13 0
-2 -14 0
-3 -4 0
-3 -5 0
-3 -6 0
-3 -7 0
-3 -8 0
-3 -9 0
-3 -10 0
-3 -11 0
-3 -12 0
-3 -13 0
-3 -14 0
-4 -5 0
-4 -6 0
-4 -7 0
-4 -8 0
-4 -9 0
-4 -10 0
-4 -11 0
-4 -12 0
-4 -13 0
-4 -14 0
-5 -6 0
-5 -7 0
-5 -8 0
-5 -9 0
-5 -10 0
-5 -11 0
-5 -12 0
-5 -13 0
-5 -14 0
-6 -7 0
-6 -8 0
-6 -9 0
-6 -10 0
-6 -11 0
-6 -12 0
-6 -13 0
-6 -14 0
-7 -8 0
-7 -9 0
-7 -10 0
-7 -11 0
-7 -12 0
-7 -13 0
-7 -14 0
-8 -9 0
-8 -10 0
-8 -11 0
-8 -12 0
-8 -13 0
-8 -14 0
-9 -10 0
-9 -11 0
-9 -12 0
-9 -13 0
-9 -14 0
-10 -11 0
-10 -12 0
-10 -13 0
-10 -14 0
-11 -12 0
-11 -13 0
-11 -14 0
-12 -13 0
-12 -14 0
-13 -14 0
6611 6612 6613 6614 6615 6616 6617 6618 6619 6620 6621 6622 6623 6624 6625 6626 6627 0
-6611 -6612 0
-6611 -6613 0
-6611 -6614 0
-6611 -6615 0
-6611 -6616 0
-6611 -6617 0
-6611 -6618 0
-6611 -6619 0
-6611 -6620 0
-6611 -6621 0
-6611 -6622 0
-6611 -6623 0
-6611 -6624 0
-6611 -6625 0
-6611 -6626 0
-6611 -6627 0
-6612 -6613 0
-6612 -6614 0
-6612 -6615 0
-6612 -6616 0
-6612 -6617 0
-6612 -6618 0
-6612 -6619 0
-6612 -6620 0
-6612 -6621 0
-6612 -6622 0
-6612 -6623 0
-6612 -6624 0
-6612 -6625 0
-6612 -6626 0
-6612 -6627 0
-6613 -6614 0
-6613 -6615 0
-6613 -6616 0
-6613 -6617 0
-6613 -6618 0
-6613 -6619 0
-6613 -6620 0
-6613 -6621 0
-6613 -6622 0
-6613 -6623 0
-6613 -6624 0
-6613 -6625 0
-6613 -6626 0
-6613 -6627 0
-6614 -6615 0
-6614 -6616 0
-6614 -6617 0
-6614 -6618 0
-6614 -6619 0
-6614 -6620 0
-6614 -6621 0
-6614 -6622 0
-6614 -6623 0
-6614 -6624 0
-6614 -6625 0
-6614 -6626 0
-6614 -6627 0
-6615 -6616 0
-6615 -6617 0
-6615 -6618 0
-6615 -6619 0
-6615 -6620 0
-6615 -6621 0
-6615 -6622 0
-6615 -6623 0
-6615 -6624 0
-6615 -6625 0
-6615 -6626 0
-6615 -6627 0
-6616 -6617 0
-6616 -6618 0
-6616 -6619 0
-6616 -6620 0
-6616 -6621 0
-6616 -6622 0
-6616 -6623 0
-6616 -6624 0
-6616 -6625 0
-6616 -6626 0
-6616 -6627 0
-6617 -6618 0
-6617 -6619 0
-6617 -6620 0
-6617 -6621 0
-6617 -6622 0
-6617 -6623 0
-6617 -6624 0
-6617 -6625 0
-6617 -6626 0
-6617 -6627 0
-6618 -6619 0
-6618 -6620 0
-6618 -6621 0
-6618 -6622 0
-6618 -6623 0
-6618 -6624 0
-6618 -6625 0
-6618 -6626 0
-6618 -6627 0
-6619 -6620 0
-6619 -6621 0
-6619 -6622 0
-6619 -6623 0
-6619 -6624 0
-6619 -6625 0
-6619 -6626 0
-6619 -6627 0
-6620 -6621 0
-6620 -6622 0
-6620 -6623 0
-6620 -6624 0
-6620 -6625 0
-6620 -6626 0
-6620 -6627 0
-6621 -6622 0
-6621 -6623 0
-6621 -6624 0
-6621 -6625 0
-6621 -6626 0
-6621 -6627 0
-6622 -6623 0
-6622 -6624 0
-6622 -6625 0
-6622 -6626 0
-6622 -6627 0
-6623 -6624 0
-6623 -6625 0
-6623 -6626 0
-6623 -6627 0
-6624 -6625 0
-6624 -6626 0
-6624 -6627 0
-6625 -6626 0
-6625 -6627 0
-6626 -6627 0
